



































































































82 85 28 91 72 25 75 97 10 
26 3 12 24 19 70 80 57 98 
39 101 7 41 51 113 114 36 
56 61 64 15 44 63 47 
32 20 55 111 14 1 58 92 
78 42 27 106 100 31 81 94 40 
89 65 37 62 5 68 96 84 22 
23 0 95 33 110 59 52 
11 69 9 29 74 105 21 38 
2 60 77 16 66 86 88 102 
13 83 34 30 87 76 48 79 

90 18 35 104 50 93 108 
49 107 112 109 103 99 54 4 17 
53 6 67 8 45 71 73 43 46 
